1454491
36,50,88,82,58,15,16,61,67,43,14,92,84,22,51,25,94,17,29,40,79,78,19,59,90,34,71,46,45,7,66,4,37,30,93,13,80,1,48,74,70,32,69,6,56,91,53,8,89,85,5,3,64,2,27,86,81,39,28,11,23,65,54,98,52,24,12,26,73,95,47,57,33,9,21,20,77,49,60,83,76,87,38,72,99,68,44,63,10,18,41,75,96,31,62,55,35,97,42